SimulationType  MonteCarlo
NumberOfCycles  1000
PrintEvery  1
CutOffVDW  12.0
Framework  0
FrameworkName  zsm5_111
UnitCells  3 3 3
Movies  yes
WriteMoviesEvery  1
ComputeEnergyHistogram  no
WriteEnergyHistogramEvery  1
EnergyHistogramSize 10000000
EnergyHistogramLowerLimit -10000000
ComputeDensityProfile3DVTKGrid no
WriteDensityProfile3DVTKGridEvery 1
ExternalTemperature  300
ComputeMoleculeProperties no
OmitAdsorbateAdsorbateCoulombInteractions    no
Component 0 MoleculeName  branch2
            StartingBead                     1
            TranslationProbability           1
            RotationProbability              1
            ReinsertionProbability           1
            PartialReinsertionProbability    0
            CreateNumberOfMolecules          1
